\ LP format - for model browsing. Use MPS format to capture full model detail.
Maximize
  100 z[0,0] + 19 z[0,1] + 19 z[0,2] + 19 z[1,1] + 19 z[2,2]
Subject To
 mc1[0]: x[0] + z[0,0] + z[0,1] + z[0,2] = 1
 mc1[1]: x[1] + z[1,1] = 1
 mc1[2]: x[2] + z[2,2] = 1
 mc2[0,0]: 2 y[0] + x[0] - z[0,0] <= 2
 mc2[0,1]: 2 y[1] + x[0] - z[0,1] <= 2
 mc2[0,2]: 2 y[2] + x[0] - z[0,2] <= 2
 mc2[1,0]: 2 y[0] + x[1] - z[1,0] <= 2
 mc2[1,1]: 2 y[1] + x[1] - z[1,1] <= 2
 mc2[1,2]: 2 y[2] + x[1] - z[1,2] <= 2
 mc2[2,0]: 2 y[0] + x[2] - z[2,0] <= 2
 mc2[2,1]: 2 y[1] + x[2] - z[2,1] <= 2
 mc2[2,2]: 2 y[2] + x[2] - z[2,2] <= 2
 mc3[0,0]: - x[0] + z[0,0] <= 0
 mc3[0,1]: - x[0] + z[0,1] <= 0
 mc3[0,2]: - x[0] + z[0,2] <= 0
 mc3[1,0]: - x[1] + z[1,0] <= 0
 mc3[1,1]: - x[1] + z[1,1] <= 0
 mc3[1,2]: - x[1] + z[1,2] <= 0
 mc3[2,0]: - x[2] + z[2,0] <= 0
 mc3[2,1]: - x[2] + z[2,1] <= 0
 mc3[2,2]: - x[2] + z[2,2] <= 0
 mc4[0,0]: - 2 y[0] + z[0,0] <= 0
 mc4[0,1]: - 2 y[1] + z[0,1] <= 0
 mc4[0,2]: - 2 y[2] + z[0,2] <= 0
 mc4[1,0]: - 2 y[0] + z[1,0] <= 0
 mc4[1,1]: - 2 y[1] + z[1,1] <= 0
 mc4[1,2]: - 2 y[2] + z[1,2] <= 0
 mc4[2,0]: - 2 y[0] + z[2,0] <= 0
 mc4[2,1]: - 2 y[1] + z[2,1] <= 0
 mc4[2,2]: - 2 y[2] + z[2,2] <= 0
Bounds
Binaries
 y[0] y[1] y[2]
End
